30	100	100	100
10	9	19
34	20	44
32	8	31
41	26	27
24	26	12
42	22	34
15	10	34
17	24	38
22	3	17
2	39	24
38	23	9
14	45	8
38	34	17
7	1	6
20	34	16
36	34	32
42	27	40
48	14	5
46	21	38
17	41	40
11	20	4
3	16	18
15	20	38
46	17	10
47	10	5
16	35	27
16	47	30
38	9	31
33	16	15
16	4	21
